100
120
99
99
98
97
96
95
94
94
94
93
93
92
92
92
92
90
90
90
89
88
88
87
87
85
85
84
81
79
76
75
74
74
74
72
72
72
72
72
71
70
70
69
68
68
68
67
67
65
65
64
64
63
63
63
61
61
61
60
60
59
58
57
57
56
56
55
54
53
52
51
49
49
49
49
47
47
46
44
41
40
38
37
37
37
35
34
34
33
32
32
31
30
29
27
25
24
23
22
22
20
